p cnf 2075
-24 -654
-25 -657
-26 -660
-27 -663
-28 -666
-29 -669
-30 -672
-31 -675
-32 -678
-33 -681
-34 -684
-35 -687
-36 -690
-37 -693
-38 -696
-39 -699
-40 -702
-41 -705
-42 -708
-43 -711
-44 -714
-45 -717
-46 -720
-47 721
-48 722
-49 723
-50 724
-51 725
-52 726
-53 727
-54 728
-55 729
-56 730
-57 731
-58 732
-59 733
-60 734
-61 735
-62 736
-63 737
-64 738
-65 739
-66 740
-67 741
-68 742
-69 743
-70 -25
-70 -26
25 26 70
-71 -27
-71 -28
27 28 71
-72 -29
-72 -30
29 30 72
-73 -31
-73 -32
31 32 73
-74 -33
-74 -34
33 34 74
-75 -35
-75 -36
35 36 75
-76 -37
-76 -38
37 38 76
-77 -39
-77 -40
39 40 77
-78 -41
-78 -42
41 42 78
-79 -43
-79 -44
43 44 79
-80 -45
-80 -46
45 46 80
-81 -47
-81 -48
47 48 81
-82 -49
-82 -50
49 50 82
-83 -51
-83 -52
51 52 83
-84 -53
-84 -54
53 54 84
-85 -55
-85 -56
55 56 85
-86 -57
-86 -58
57 58 86
-87 -59
-87 -60
59 60 87
-88 -61
-88 -62
61 62 88
-89 -63
-89 -64
63 64 89
-90 -65
-90 -66
65 66 90
-91 -67
-91 -68
67 68 91
-92 70
-92 71
-70 -71 92
-93 72
-93 73
-72 -73 93
-94 74
-94 75
-74 -75 94
-95 76
-95 77
-76 -77 95
-96 78
-96 79
-78 -79 96
-97 80
-97 81
-80 -81 97
-98 82
-98 83
-82 -83 98
-99 84
-99 85
-84 -85 99
-100 86
-100 87
-86 -87 100
-101 88
-101 89
-88 -89 101
-102 90
-102 91
-90 -91 102
-103 92
-103 93
-92 -93 103
-104 94
-104 95
-94 -95 104
-105 96
-105 97
-96 -97 105
-106 98
-106 99
-98 -99 106
-107 100
-107 101
-100 -101 107
-108 -69
-108 102
69 -102 108
-109 103
-109 104
-103 -104 109
-110 105
-110 106
-105 -106 110
-111 107
-111 108
-107 -108 111
-112 109
-112 110
-109 -110 112
-113 111
-113 112
-111 -112 113
-114 -24
-114 25
24 -25 114
-115 24
-115 -25
-24 25 115
-116 -114
-116 -115
114 115 116
-117 24
-117 25
-24 -25 117
-118 -24
-118 -116
24 116 118
-119 24
-119 116
-24 -116 119
-120 -118
-120 -119
118 119 120
-121 24
-121 -116
-24 116 121
-122 -117
-122 -121
117 121 122
-123 -25
-123 26
25 -26 123
-124 25
-124 -26
-25 26 124
-125 -123
-125 -124
123 124 125
-126 25
-126 26
-25 -26 126
-127 122
-127 -125
-122 125 127
-128 -122
-128 125
122 -125 128
-129 -127
-129 -128
127 128 129
-130 -122
-130 -125
122 125 130
-131 -126
-131 -130
126 130 131
-132 -26
-132 27
26 -27 132
-133 26
-133 -27
-26 27 133
-134 -132
-134 -133
132 133 134
-135 26
-135 27
-26 -27 135
-136 131
-136 -134
-131 134 136
-137 -131
-137 134
131 -134 137
-138 -136
-138 -137
136 137 138
-139 -131
-139 -134
131 134 139
-140 -135
-140 -139
135 139 140
-141 -27
-141 28
27 -28 141
-142 27
-142 -28
-27 28 142
-143 -141
-143 -142
141 142 143
-144 27
-144 28
-27 -28 144
-145 140
-145 -143
-140 143 145
-146 -140
-146 143
140 -143 146
-147 -145
-147 -146
145 146 147
-148 -140
-148 -143
140 143 148
-149 -144
-149 -148
144 148 149
-150 -28
-150 29
28 -29 150
-151 28
-151 -29
-28 29 151
-152 -150
-152 -151
150 151 152
-153 28
-153 29
-28 -29 153
-154 149
-154 -152
-149 152 154
-155 -149
-155 152
149 -152 155
-156 -154
-156 -155
154 155 156
-157 -149
-157 -152
149 152 157
-158 -153
-158 -157
153 157 158
-159 -29
-159 30
29 -30 159
-160 29
-160 -30
-29 30 160
-161 -159
-161 -160
159 160 161
-162 29
-162 30
-29 -30 162
-163 158
-163 -161
-158 161 163
-164 -158
-164 161
158 -161 164
-165 -163
-165 -164
163 164 165
-166 -158
-166 -161
158 161 166
-167 -162
-167 -166
162 166 167
-168 -30
-168 31
30 -31 168
-169 30
-169 -31
-30 31 169
-170 -168
-170 -169
168 169 170
-171 30
-171 31
-30 -31 171
-172 167
-172 -170
-167 170 172
-173 -167
-173 170
167 -170 173
-174 -172
-174 -173
172 173 174
-175 -167
-175 -170
167 170 175
-176 -171
-176 -175
171 175 176
-177 -31
-177 32
31 -32 177
-178 31
-178 -32
-31 32 178
-179 -177
-179 -178
177 178 179
-180 31
-180 32
-31 -32 180
-181 176
-181 -179
-176 179 181
-182 -176
-182 179
176 -179 182
-183 -181
-183 -182
181 182 183
-184 -176
-184 -179
176 179 184
-185 -180
-185 -184
180 184 185
-186 -32
-186 33
32 -33 186
-187 32
-187 -33
-32 33 187
-188 -186
-188 -187
186 187 188
-189 32
-189 33
-32 -33 189
-190 185
-190 -188
-185 188 190
-191 -185
-191 188
185 -188 191
-192 -190
-192 -191
190 191 192
-193 -185
-193 -188
185 188 193
-194 -189
-194 -193
189 193 194
-195 -33
-195 34
33 -34 195
-196 33
-196 -34
-33 34 196
-197 -195
-197 -196
195 196 197
-198 33
-198 34
-33 -34 198
-199 194
-199 -197
-194 197 199
-200 -194
-200 197
194 -197 200
-201 -199
-201 -200
199 200 201
-202 -194
-202 -197
194 197 202
-203 -198
-203 -202
198 202 203
-204 -34
-204 35
34 -35 204
-205 34
-205 -35
-34 35 205
-206 -204
-206 -205
204 205 206
-207 34
-207 35
-34 -35 207
-208 203
-208 -206
-203 206 208
-209 -203
-209 206
203 -206 209
-210 -208
-210 -209
208 209 210
-211 -203
-211 -206
203 206 211
-212 -207
-212 -211
207 211 212
-213 -35
-213 36
35 -36 213
-214 35
-214 -36
-35 36 214
-215 -213
-215 -214
213 214 215
-216 35
-216 36
-35 -36 216
-217 212
-217 -215
-212 215 217
-218 -212
-218 215
212 -215 218
-219 -217
-219 -218
217 218 219
-220 -212
-220 -215
212 215 220
-221 -216
-221 -220
216 220 221
-222 -36
-222 37
36 -37 222
-223 36
-223 -37
-36 37 223
-224 -222
-224 -223
222 223 224
-225 36
-225 37
-36 -37 225
-226 221
-226 -224
-221 224 226
-227 -221
-227 224
221 -224 227
-228 -226
-228 -227
226 227 228
-229 -221
-229 -224
221 224 229
-230 -225
-230 -229
225 229 230
-231 -37
-231 38
37 -38 231
-232 37
-232 -38
-37 38 232
-233 -231
-233 -232
231 232 233
-234 37
-234 38
-37 -38 234
-235 230
-235 -233
-230 233 235
-236 -230
-236 233
230 -233 236
-237 -235
-237 -236
235 236 237
-238 -230
-238 -233
230 233 238
-239 -234
-239 -238
234 238 239
-240 -38
-240 39
38 -39 240
-241 38
-241 -39
-38 39 241
-242 -240
-242 -241
240 241 242
-243 38
-243 39
-38 -39 243
-244 239
-244 -242
-239 242 244
-245 -239
-245 242
239 -242 245
-246 -244
-246 -245
244 245 246
-247 -239
-247 -242
239 242 247
-248 -243
-248 -247
243 247 248
-249 -39
-249 40
39 -40 249
-250 39
-250 -40
-39 40 250
-251 -249
-251 -250
249 250 251
-252 39
-252 40
-39 -40 252
-253 248
-253 -251
-248 251 253
-254 -248
-254 251
248 -251 254
-255 -253
-255 -254
253 254 255
-256 -248
-256 -251
248 251 256
-257 -252
-257 -256
252 256 257
-258 -40
-258 41
40 -41 258
-259 40
-259 -41
-40 41 259
-260 -258
-260 -259
258 259 260
-261 40
-261 41
-40 -41 261
-262 257
-262 -260
-257 260 262
-263 -257
-263 260
257 -260 263
-264 -262
-264 -263
262 263 264
-265 -257
-265 -260
257 260 265
-266 -261
-266 -265
261 265 266
-267 -41
-267 42
41 -42 267
-268 41
-268 -42
-41 42 268
-269 -267
-269 -268
267 268 269
-270 41
-270 42
-41 -42 270
-271 266
-271 -269
-266 269 271
-272 -266
-272 269
266 -269 272
-273 -271
-273 -272
271 272 273
-274 -266
-274 -269
266 269 274
-275 -270
-275 -274
270 274 275
-276 -42
-276 43
42 -43 276
-277 42
-277 -43
-42 43 277
-278 -276
-278 -277
276 277 278
-279 42
-279 43
-42 -43 279
-280 275
-280 -278
-275 278 280
-281 -275
-281 278
275 -278 281
-282 -280
-282 -281
280 281 282
-283 -275
-283 -278
275 278 283
-284 -279
-284 -283
279 283 284
-285 -43
-285 44
43 -44 285
-286 43
-286 -44
-43 44 286
-287 -285
-287 -286
285 286 287
-288 43
-288 44
-43 -44 288
-289 284
-289 -287
-284 287 289
-290 -284
-290 287
284 -287 290
-291 -289
-291 -290
289 290 291
-292 -284
-292 -287
284 287 292
-293 -288
-293 -292
288 292 293
-294 -44
-294 45
44 -45 294
-295 44
-295 -45
-44 45 295
-296 -294
-296 -295
294 295 296
-297 44
-297 45
-44 -45 297
-298 293
-298 -296
-293 296 298
-299 -293
-299 296
293 -296 299
-300 -298
-300 -299
298 299 300
-301 -293
-301 -296
293 296 301
-302 -297
-302 -301
297 301 302
-303 -45
-303 46
45 -46 303
-304 45
-304 -46
-45 46 304
-305 -303
-305 -304
303 304 305
-306 45
-306 46
-45 -46 306
-307 302
-307 -305
-302 305 307
-308 -302
-308 305
302 -305 308
-309 -307
-309 -308
307 308 309
-310 -302
-310 -305
302 305 310
-311 -306
-311 -310
306 310 311
-312 -46
-312 47
46 -47 312
-313 46
-313 -47
-46 47 313
-314 -312
-314 -313
312 313 314
-315 46
-315 47
-46 -47 315
-316 311
-316 -314
-311 314 316
-317 -311
-317 314
311 -314 317
-318 -316
-318 -317
316 317 318
-319 -311
-319 -314
311 314 319
-320 -315
-320 -319
315 319 320
-321 -47
-321 48
47 -48 321
-322 47
-322 -48
-47 48 322
-323 -321
-323 -322
321 322 323
-324 47
-324 48
-47 -48 324
-325 320
-325 -323
-320 323 325
-326 -320
-326 323
320 -323 326
-327 -325
-327 -326
325 326 327
-328 -320
-328 -323
320 323 328
-329 -324
-329 -328
324 328 329
-330 -48
-330 49
48 -49 330
-331 48
-331 -49
-48 49 331
-332 -330
-332 -331
330 331 332
-333 48
-333 49
-48 -49 333
-334 329
-334 -332
-329 332 334
-335 -329
-335 332
329 -332 335
-336 -334
-336 -335
334 335 336
-337 -329
-337 -332
329 332 337
-338 -333
-338 -337
333 337 338
-339 -49
-339 50
49 -50 339
-340 49
-340 -50
-49 50 340
-341 -339
-341 -340
339 340 341
-342 49
-342 50
-49 -50 342
-343 338
-343 -341
-338 341 343
-344 -338
-344 341
338 -341 344
-345 -343
-345 -344
343 344 345
-346 -338
-346 -341
338 341 346
-347 -342
-347 -346
342 346 347
-348 -50
-348 51
50 -51 348
-349 50
-349 -51
-50 51 349
-350 -348
-350 -349
348 349 350
-351 50
-351 51
-50 -51 351
-352 347
-352 -350
-347 350 352
-353 -347
-353 350
347 -350 353
-354 -352
-354 -353
352 353 354
-355 -347
-355 -350
347 350 355
-356 -351
-356 -355
351 355 356
-357 -51
-357 52
51 -52 357
-358 51
-358 -52
-51 52 358
-359 -357
-359 -358
357 358 359
-360 51
-360 52
-51 -52 360
-361 356
-361 -359
-356 359 361
-362 -356
-362 359
356 -359 362
-363 -361
-363 -362
361 362 363
-364 -356
-364 -359
356 359 364
-365 -360
-365 -364
360 364 365
-366 -52
-366 53
52 -53 366
-367 52
-367 -53
-52 53 367
-368 -366
-368 -367
366 367 368
-369 52
-369 53
-52 -53 369
-370 365
-370 -368
-365 368 370
-371 -365
-371 368
365 -368 371
-372 -370
-372 -371
370 371 372
-373 -365
-373 -368
365 368 373
-374 -369
-374 -373
369 373 374
-375 -53
-375 54
53 -54 375
-376 53
-376 -54
-53 54 376
-377 -375
-377 -376
375 376 377
-378 53
-378 54
-53 -54 378
-379 374
-379 -377
-374 377 379
-380 -374
-380 377
374 -377 380
-381 -379
-381 -380
379 380 381
-382 -374
-382 -377
374 377 382
-383 -378
-383 -382
378 382 383
-384 -54
-384 55
54 -55 384
-385 54
-385 -55
-54 55 385
-386 -384
-386 -385
384 385 386
-387 54
-387 55
-54 -55 387
-388 383
-388 -386
-383 386 388
-389 -383
-389 386
383 -386 389
-390 -388
-390 -389
388 389 390
-391 -383
-391 -386
383 386 391
-392 -387
-392 -391
387 391 392
-393 -55
-393 56
55 -56 393
-394 55
-394 -56
-55 56 394
-395 -393
-395 -394
393 394 395
-396 55
-396 56
-55 -56 396
-397 392
-397 -395
-392 395 397
-398 -392
-398 395
392 -395 398
-399 -397
-399 -398
397 398 399
-400 -392
-400 -395
392 395 400
-401 -396
-401 -400
396 400 401
-402 -56
-402 57
56 -57 402
-403 56
-403 -57
-56 57 403
-404 -402
-404 -403
402 403 404
-405 56
-405 57
-56 -57 405
-406 401
-406 -404
-401 404 406
-407 -401
-407 404
401 -404 407
-408 -406
-408 -407
406 407 408
-409 -401
-409 -404
401 404 409
-410 -405
-410 -409
405 409 410
-411 -57
-411 58
57 -58 411
-412 57
-412 -58
-57 58 412
-413 -411
-413 -412
411 412 413
-414 57
-414 58
-57 -58 414
-415 410
-415 -413
-410 413 415
-416 -410
-416 413
410 -413 416
-417 -415
-417 -416
415 416 417
-418 -410
-418 -413
410 413 418
-419 -414
-419 -418
414 418 419
-420 -58
-420 59
58 -59 420
-421 58
-421 -59
-58 59 421
-422 -420
-422 -421
420 421 422
-423 58
-423 59
-58 -59 423
-424 419
-424 -422
-419 422 424
-425 -419
-425 422
419 -422 425
-426 -424
-426 -425
424 425 426
-427 -419
-427 -422
419 422 427
-428 -423
-428 -427
423 427 428
-429 -59
-429 60
59 -60 429
-430 59
-430 -60
-59 60 430
-431 -429
-431 -430
429 430 431
-432 59
-432 60
-59 -60 432
-433 428
-433 -431
-428 431 433
-434 -428
-434 431
428 -431 434
-435 -433
-435 -434
433 434 435
-436 -428
-436 -431
428 431 436
-437 -432
-437 -436
432 436 437
-438 -60
-438 61
60 -61 438
-439 60
-439 -61
-60 61 439
-440 -438
-440 -439
438 439 440
-441 60
-441 61
-60 -61 441
-442 437
-442 -440
-437 440 442
-443 -437
-443 440
437 -440 443
-444 -442
-444 -443
442 443 444
-445 -437
-445 -440
437 440 445
-446 -441
-446 -445
441 445 446
-447 -61
-447 62
61 -62 447
-448 61
-448 -62
-61 62 448
-449 -447
-449 -448
447 448 449
-450 61
-450 62
-61 -62 450
-451 446
-451 -449
-446 449 451
-452 -446
-452 449
446 -449 452
-453 -451
-453 -452
451 452 453
-454 -446
-454 -449
446 449 454
-455 -450
-455 -454
450 454 455
-456 -62
-456 63
62 -63 456
-457 62
-457 -63
-62 63 457
-458 -456
-458 -457
456 457 458
-459 62
-459 63
-62 -63 459
-460 455
-460 -458
-455 458 460
-461 -455
-461 458
455 -458 461
-462 -460
-462 -461
460 461 462
-463 -455
-463 -458
455 458 463
-464 -459
-464 -463
459 463 464
-465 -63
-465 64
63 -64 465
-466 63
-466 -64
-63 64 466
-467 -465
-467 -466
465 466 467
-468 63
-468 64
-63 -64 468
-469 464
-469 -467
-464 467 469
-470 -464
-470 467
464 -467 470
-471 -469
-471 -470
469 470 471
-472 -464
-472 -467
464 467 472
-473 -468
-473 -472
468 472 473
-474 -64
-474 65
64 -65 474
-475 64
-475 -65
-64 65 475
-476 -474
-476 -475
474 475 476
-477 64
-477 65
-64 -65 477
-478 473
-478 -476
-473 476 478
-479 -473
-479 476
473 -476 479
-480 -478
-480 -479
478 479 480
-481 -473
-481 -476
473 476 481
-482 -477
-482 -481
477 481 482
-483 -65
-483 66
65 -66 483
-484 65
-484 -66
-65 66 484
-485 -483
-485 -484
483 484 485
-486 65
-486 66
-65 -66 486
-487 482
-487 -485
-482 485 487
-488 -482
-488 485
482 -485 488
-489 -487
-489 -488
487 488 489
-490 -482
-490 -485
482 485 490
-491 -486
-491 -490
486 490 491
-492 -66
-492 67
66 -67 492
-493 66
-493 -67
-66 67 493
-494 -492
-494 -493
492 493 494
-495 66
-495 67
-66 -67 495
-496 491
-496 -494
-491 494 496
-497 -491
-497 494
491 -494 497
-498 -496
-498 -497
496 497 498
-499 -491
-499 -494
491 494 499
-500 -495
-500 -499
495 499 500
-501 -67
-501 68
67 -68 501
-502 67
-502 -68
-67 68 502
-503 -501
-503 -502
501 502 503
-504 67
-504 68
-67 -68 504
-505 500
-505 -503
-500 503 505
-506 -500
-506 503
500 -503 506
-507 -505
-507 -506
505 506 507
-508 -500
-508 -503
500 503 508
-509 -504
-509 -508
504 508 509
-510 -68
-510 69
68 -69 510
-511 68
-511 -69
-68 69 511
-512 -510
-512 -511
510 511 512
-513 68
-513 69
-68 -69 513
-514 509
-514 -512
-509 512 514
-515 -509
-515 512
509 -512 515
-516 -514
-516 -515
514 515 516
-517 -509
-517 -512
509 512 517
-518 -513
-518 -517
513 517 518
-519 24
-519 -120
-24 120 519
-520 -24
-520 26
24 -26 520
-521 -519
-521 -520
519 520 521
-522 24
-522 -129
-24 129 522
-523 -24
-523 27
24 -27 523
-524 -522
-524 -523
522 523 524
-525 24
-525 -138
-24 138 525
-526 -24
-526 28
24 -28 526
-527 -525
-527 -526
525 526 527
-528 24
-528 -147
-24 147 528
-529 -24
-529 29
24 -29 529
-530 -528
-530 -529
528 529 530
-531 24
-531 -156
-24 156 531
-532 -24
-532 30
24 -30 532
-533 -531
-533 -532
531 532 533
-534 24
-534 -165
-24 165 534
-535 -24
-535 31
24 -31 535
-536 -534
-536 -535
534 535 536
-537 24
-537 -174
-24 174 537
-538 -24
-538 32
24 -32 538
-539 -537
-539 -538
537 538 539
-540 24
-540 -183
-24 183 540
-541 -24
-541 33
24 -33 541
-542 -540
-542 -541
540 541 542
-543 24
-543 -192
-24 192 543
-544 -24
-544 34
24 -34 544
-545 -543
-545 -544
543 544 545
-546 24
-546 -201
-24 201 546
-547 -24
-547 35
24 -35 547
-548 -546
-548 -547
546 547 548
-549 24
-549 -210
-24 210 549
-550 -24
-550 36
24 -36 550
-551 -549
-551 -550
549 550 551
-552 24
-552 -219
-24 219 552
-553 -24
-553 37
24 -37 553
-554 -552
-554 -553
552 553 554
-555 24
-555 -228
-24 228 555
-556 -24
-556 38
24 -38 556
-557 -555
-557 -556
555 556 557
-558 24
-558 -237
-24 237 558
-559 -24
-559 39
24 -39 559
-560 -558
-560 -559
558 559 560
-561 24
-561 -246
-24 246 561
-562 -24
-562 40
24 -40 562
-563 -561
-563 -562
561 562 563
-564 24
-564 -255
-24 255 564
-565 -24
-565 41
24 -41 565
-566 -564
-566 -565
564 565 566
-567 24
-567 -264
-24 264 567
-568 -24
-568 42
24 -42 568
-569 -567
-569 -568
567 568 569
-570 24
-570 -273
-24 273 570
-571 -24
-571 43
24 -43 571
-572 -570
-572 -571
570 571 572
-573 24
-573 -282
-24 282 573
-574 -24
-574 44
24 -44 574
-575 -573
-575 -574
573 574 575
-576 24
-576 -291
-24 291 576
-577 -24
-577 45
24 -45 577
-578 -576
-578 -577
576 577 578
-579 24
-579 -300
-24 300 579
-580 -24
-580 46
24 -46 580
-581 -579
-581 -580
579 580 581
-582 24
-582 -309
-24 309 582
-583 -24
-583 47
24 -47 583
-584 -582
-584 -583
582 583 584
-585 24
-585 -318
-24 318 585
-586 -24
-586 48
24 -48 586
-587 -585
-587 -586
585 586 587
-588 24
-588 -327
-24 327 588
-589 -24
-589 49
24 -49 589
-590 -588
-590 -589
588 589 590
-591 24
-591 -336
-24 336 591
-592 -24
-592 50
24 -50 592
-593 -591
-593 -592
591 592 593
-594 24
-594 -345
-24 345 594
-595 -24
-595 51
24 -51 595
-596 -594
-596 -595
594 595 596
-597 24
-597 -354
-24 354 597
-598 -24
-598 52
24 -52 598
-599 -597
-599 -598
597 598 599
-600 24
-600 -363
-24 363 600
-601 -24
-601 53
24 -53 601
-602 -600
-602 -601
600 601 602
-603 24
-603 -372
-24 372 603
-604 -24
-604 54
24 -54 604
-605 -603
-605 -604
603 604 605
-606 24
-606 -381
-24 381 606
-607 -24
-607 55
24 -55 607
-608 -606
-608 -607
606 607 608
-609 24
-609 -390
-24 390 609
-610 -24
-610 56
24 -56 610
-611 -609
-611 -610
609 610 611
-612 24
-612 -399
-24 399 612
-613 -24
-613 57
24 -57 613
-614 -612
-614 -613
612 613 614
-615 24
-615 -408
-24 408 615
-616 -24
-616 58
24 -58 616
-617 -615
-617 -616
615 616 617
-618 24
-618 -417
-24 417 618
-619 -24
-619 59
24 -59 619
-620 -618
-620 -619
618 619 620
-621 24
-621 -426
-24 426 621
-622 -24
-622 60
24 -60 622
-623 -621
-623 -622
621 622 623
-624 24
-624 -435
-24 435 624
-625 -24
-625 61
24 -61 625
-626 -624
-626 -625
624 625 626
-627 24
-627 -444
-24 444 627
-628 -24
-628 62
24 -62 628
-629 -627
-629 -628
627 628 629
-630 24
-630 -453
-24 453 630
-631 -24
-631 63
24 -63 631
-632 -630
-632 -631
630 631 632
-633 24
-633 -462
-24 462 633
-634 -24
-634 64
24 -64 634
-635 -633
-635 -634
633 634 635
-636 24
-636 -471
-24 471 636
-637 -24
-637 65
24 -65 637
-638 -636
-638 -637
636 637 638
-639 24
-639 -480
-24 480 639
-640 -24
-640 66
24 -66 640
-641 -639
-641 -640
639 640 641
-642 24
-642 -489
-24 489 642
-643 -24
-643 67
24 -67 643
-644 -642
-644 -643
642 643 644
-645 24
-645 -498
-24 498 645
-646 -24
-646 68
24 -68 646
-647 -645
-647 -646
645 646 647
-648 24
-648 -507
-24 507 648
-649 -24
-649 69
24 -69 649
-650 -648
-650 -649
648 649 650
-651 24
-651 -516
-24 516 651
-652 1
-652 113
-1 -113 652
-653 -113
-653 114
113 -114 653
-654 -652
-654 -653
652 653 654
-655 2
-655 113
-2 -113 655
-656 -113
-656 -521
113 521 656
-657 -655
-657 -656
655 656 657
-658 3
-658 113
-3 -113 658
-659 -113
-659 -524
113 524 659
-660 -658
-660 -659
658 659 660
-661 4
-661 113
-4 -113 661
-662 -113
-662 -527
113 527 662
-663 -661
-663 -662
661 662 663
-664 5
-664 113
-5 -113 664
-665 -113
-665 -530
113 530 665
-666 -664
-666 -665
664 665 666
-667 6
-667 113
-6 -113 667
-668 -113
-668 -533
113 533 668
-669 -667
-669 -668
667 668 669
-670 7
-670 113
-7 -113 670
-671 -113
-671 -536
113 536 671
-672 -670
-672 -671
670 671 672
-673 8
-673 113
-8 -113 673
-674 -113
-674 -539
113 539 674
-675 -673
-675 -674
673 674 675
-676 9
-676 113
-9 -113 676
-677 -113
-677 -542
113 542 677
-678 -676
-678 -677
676 677 678
-679 10
-679 113
-10 -113 679
-680 -113
-680 -545
113 545 680
-681 -679
-681 -680
679 680 681
-682 11
-682 113
-11 -113 682
-683 -113
-683 -548
113 548 683
-684 -682
-684 -683
682 683 684
-685 12
-685 113
-12 -113 685
-686 -113
-686 -551
113 551 686
-687 -685
-687 -686
685 686 687
-688 13
-688 113
-13 -113 688
-689 -113
-689 -554
113 554 689
-690 -688
-690 -689
688 689 690
-691 14
-691 113
-14 -113 691
-692 -113
-692 -557
113 557 692
-693 -691
-693 -692
691 692 693
-694 15
-694 113
-15 -113 694
-695 -113
-695 -560
113 560 695
-696 -694
-696 -695
694 695 696
-697 16
-697 113
-16 -113 697
-698 -113
-698 -563
113 563 698
-699 -697
-699 -698
697 698 699
-700 17
-700 113
-17 -113 700
-701 -113
-701 -566
113 566 701
-702 -700
-702 -701
700 701 702
-703 18
-703 113
-18 -113 703
-704 -113
-704 -569
113 569 704
-705 -703
-705 -704
703 704 705
-706 19
-706 113
-19 -113 706
-707 -113
-707 -572
113 572 707
-708 -706
-708 -707
706 707 708
-709 20
-709 113
-20 -113 709
-710 -113
-710 -575
113 575 710
-711 -709
-711 -710
709 710 711
-712 21
-712 113
-21 -113 712
-713 -113
-713 -578
113 578 713
-714 -712
-714 -713
712 713 714
-715 22
-715 113
-22 -113 715
-716 -113
-716 -581
113 581 716
-717 -715
-717 -716
715 716 717
-718 23
-718 113
-23 -113 718
-719 -113
-719 -584
113 584 719
-720 -718
-720 -719
718 719 720
-721 -113
-721 -587
113 587 721
-722 -113
-722 -590
113 590 722
-723 -113
-723 -593
113 593 723
-724 -113
-724 -596
113 596 724
-725 -113
-725 -599
113 599 725
-726 -113
-726 -602
113 602 726
-727 -113
-727 -605
113 605 727
-728 -113
-728 -608
113 608 728
-729 -113
-729 -611
113 611 729
-730 -113
-730 -614
113 614 730
-731 -113
-731 -617
113 617 731
-732 -113
-732 -620
113 620 732
-733 -113
-733 -623
113 623 733
-734 -113
-734 -626
113 626 734
-735 -113
-735 -629
113 629 735
-736 -113
-736 -632
113 632 736
-737 -113
-737 -635
113 635 737
-738 -113
-738 -638
113 638 738
-739 -113
-739 -641
113 641 739
-740 -113
-740 -644
113 644 740
-741 -113
-741 -647
113 647 741
-742 -113
-742 -650
113 650 742
-743 -113
-743 651
113 -651 743
-744 -69
-744 518
69 -518 744
-745 24
-745 -744
-24 744 745
745
